20190716 150 0 0 0
20180706 100 0 0 0
20170712 50 0 0 0
20160621 50 0 0 0
20150625 100 0 0 0
20140513 120 0 0 0
20130604 100 0 0 0
20120601 100 0 0 0
20110613 100 0 0 0
20100618 100 0 0 0
20090608 100 0 0 0
20080604 150 0 0 0
20070608 150 0 0 0
20060612 130 0 0 0
20060208 0 2000 0 0
20050610 120 0 0 0
20040610 100 0 0 0
20030613 290 10000 0 0
20020612 240 0 0 0
